data;

param:
I: Value :=
0    91
1    42
2    74
3    19
4    96
5    55
6    63
7    21
8    2
9    63
10    74
11    39
12    57
13    51
14    49
15    54
16    67
17    82
18    46
19    54
20    0
21    17
22    79
23    22
24    61
25    15
26    27
27    56
28    42
29    63
30    74
31    86
32    58
33    0
34    57
35    54
36    7
37    20
38    27
39    61
40    35
41    1
42    0
43    44
44    5
45    50
46    99
47    24
48    84
49    97
50    78;

param TargetSum := 1610;
